c Created with the Wolfram Language : www.wolfram.com
c 
p edge 80 170
e 5 8
e 3 9
e 8 10
e 3 14
e 12 15
e 4 16
e 12 19
e 1 21
e 20 23
e 21 24
e 19 25
e 8 26
e 23 26
e 10 28
e 14 29
e 19 32
e 22 32
e 18 33
e 2 34
e 5 35
e 20 36
e 13 37
e 25 37
e 11 39
e 35 39
e 16 40
e 28 41
e 3 42
e 6 42
e 9 42
e 30 42
e 35 42
e 1 43
e 16 43
e 22 43
e 29 43
e 12 44
e 24 44
e 32 44
e 3 45
e 17 45
e 20 45
e 26 45
e 41 46
e 18 47
e 29 47
e 38 47
e 6 48
e 30 48
e 32 48
e 39 48
e 6 49
e 19 49
e 40 49
e 16 50
e 20 50
e 22 50
e 35 50
e 18 51
e 21 51
e 41 51
e 28 52
e 43 52
e 7 53
e 8 53
e 40 53
e 41 53
e 51 53
e 13 54
e 27 54
e 50 54
e 51 54
e 4 55
e 32 55
e 39 55
e 43 55
e 4 56
e 5 56
e 10 56
e 36 56
e 51 56
e 3 57
e 31 57
e 38 57
e 3 58
e 14 58
e 21 58
e 27 58
e 45 58
e 57 58
e 13 59
e 34 59
e 2 60
e 14 60
e 16 60
e 28 60
e 34 60
e 42 60
e 48 60
e 3 61
e 7 61
e 20 61
e 45 61
e 47 61
e 48 61
e 11 62
e 56 62
e 17 63
e 25 64
e 40 64
e 53 64
e 5 65
e 9 65
e 48 65
e 35 66
e 41 66
e 43 66
e 5 67
e 19 67
e 36 67
e 45 67
e 5 68
e 38 68
e 40 68
e 53 68
e 54 68
e 17 69
e 40 69
e 52 69
e 64 69
e 67 69
e 27 70
e 69 70
e 7 71
e 15 71
e 45 71
e 27 72
e 42 72
e 65 72
e 71 72
e 21 73
e 52 73
e 59 73
e 72 73
e 8 74
e 22 74
e 34 74
e 62 74
e 7 75
e 24 75
e 59 75
e 61 75
e 63 75
e 10 76
e 14 76
e 44 76
e 55 76
e 75 76
e 43 77
e 47 77
e 7 78
e 50 78
e 22 79
e 31 79
e 47 79
e 64 79
e 15 80
e 42 80
e 61 80
e 69 80
